%Mem=1GB
%Chk=O2minus_cc-pVDZ.chk
#P UBLYP/cc-pVDZ Opt SCF=Tight Integral=UltraFine NoSymm

O2- (doublet) geometry optimization

-1 2
O   0.000000   0.000000   0.000000
O   0.000000   0.000000   1.330000

